p edge 180 900
e 1 65
e 1 88
e 1 89
e 1 130
e 1 136
e 2 6
e 2 13
e 2 24
e 2 132
e 2 136
e 3 34
e 3 92
e 3 115
e 3 145
e 3 156
e 4 28
e 4 63
e 4 107
e 4 136
e 4 154
e 5 50
e 5 100
e 5 109
e 5 151
e 5 171
e 6 9
e 6 54
e 6 60
e 6 67
e 6 104
e 7 9
e 7 38
e 7 43
e 7 112
e 7 180
e 8 1
e 8 3
e 8 117
e 8 158
e 8 180
e 9 87
e 9 91
e 9 97
e 9 98
e 9 136
e 10 81
e 10 94
e 10 140
e 10 155
e 10 172
e 11 19
e 11 45
e 11 45
e 11 47
e 11 84
e 12 62
e 12 72
e 12 91
e 12 113
e 12 125
e 13 44
e 13 74
e 13 103
e 13 103
e 13 105
e 14 29
e 14 61
e 14 114
e 14 156
e 14 169
e 15 2
e 15 31
e 15 66
e 15 139
e 15 168
e 16 2
e 16 10
e 16 43
e 16 67
e 16 133
e 17 9
e 17 39
e 17 62
e 17 101
e 17 149
e 18 13
e 18 93
e 18 137
e 18 142
e 18 148
e 19 31
e 19 48
e 19 55
e 19 59
e 19 138
e 20 2
e 20 27
e 20 45
e 20 70
e 20 96
e 21 19
e 21 44
e 21 115
e 21 116
e 21 131
e 22 7
e 22 9
e 22 72
e 22 143
e 22 157
e 23 10
e 23 46
e 23 47
e 23 89
e 23 101
e 24 63
e 24 93
e 24 120
e 24 131
e 24 163
e 25 14
e 25 64
e 25 72
e 25 91
e 25 93
e 26 25
e 26 78
e 26 155
e 26 158
e 26 172
e 27 5
e 27 8
e 27 9
e 27 34
e 27 66
e 28 83
e 28 86
e 28 106
e 28 155
e 28 164
e 29 18
e 29 21
e 29 111
e 29 124
e 29 142
e 30 3
e 30 58
e 30 101
e 30 150
e 30 164
e 31 32
e 31 61
e 31 76
e 31 118
e 31 136
e 32 37
e 32 80
e 32 94
e 32 120
e 32 153
e 33 4
e 33 15
e 33 38
e 33 119
e 33 180
e 34 91
e 34 133
e 34 140
e 34 146
e 34 154
e 35 20
e 35 31
e 35 113
e 35 154
e 35 176
e 36 18
e 36 40
e 36 125
e 36 149
e 36 150
e 37 1
e 37 2
e 37 91
e 37 121
e 37 175
e 38 22
e 38 95
e 38 126
e 38 133
e 38 147
e 39 19
e 39 53
e 39 113
e 39 123
e 39 155
e 40 37
e 40 55
e 40 62
e 40 159
e 40 179
e 41 40
e 41 69
e 41 103
e 41 106
e 41 117
e 42 28
e 42 66
e 42 80
e 42 81
e 42 110
e 43 42
e 43 61
e 43 83
e 43 100
e 43 144
e 44 36
e 44 74
e 44 112
e 44 138
e 44 174
e 45 19
e 45 30
e 45 67
e 45 150
e 45 174
e 46 44
e 46 120
e 46 150
e 46 151
e 46 176
e 47 10
e 47 27
e 47 145
e 47 149
e 47 168
e 48 15
e 48 30
e 48 42
e 48 57
e 48 64
e 49 84
e 49 96
e 49 121
e 49 159
e 49 177
e 50 29
e 50 82
e 50 143
e 50 163
e 50 179
e 51 104
e 51 111
e 51 126
e 51 140
e 51 178
e 52 19
e 52 33
e 52 115
e 52 129
e 52 149
e 53 35
e 53 68
e 53 89
e 53 110
e 53 112
e 54 26
e 54 35
e 54 76
e 54 132
e 54 162
e 55 8
e 55 100
e 55 102
e 55 151
e 55 156
e 56 6
e 56 12
e 56 72
e 56 88
e 56 117
e 57 4
e 57 54
e 57 72
e 57 102
e 57 105
e 58 2
e 58 8
e 58 67
e 58 112
e 58 141
e 59 5
e 59 13
e 59 87
e 59 89
e 59 165
e 60 55
e 60 75
e 60 83
e 60 136
e 60 172
e 61 39
e 61 57
e 61 126
e 61 141
e 61 155
e 62 8
e 62 23
e 62 50
e 62 125
e 62 159
e 63 6
e 63 12
e 63 24
e 63 95
e 63 128
e 64 33
e 64 63
e 64 73
e 64 83
e 64 158
e 65 8
e 65 36
e 65 37
e 65 137
e 65 163
e 66 10
e 66 24
e 66 67
e 66 123
e 66 148
e 67 42
e 67 54
e 67 84
e 67 88
e 67 118
e 68 85
e 68 135
e 68 158
e 68 160
e 68 173
e 69 31
e 69 59
e 69 86
e 69 93
e 69 167
e 70 100
e 70 109
e 70 123
e 70 132
e 70 155
e 71 15
e 71 106
e 71 122
e 71 128
e 71 151
e 72 4
e 72 11
e 72 37
e 72 46
e 72 149
e 73 21
e 73 83
e 73 95
e 73 140
e 73 156
e 74 35
e 74 37
e 74 102
e 74 122
e 74 133
e 75 7
e 75 28
e 75 36
e 75 120
e 75 173
e 76 55
e 76 99
e 76 120
e 76 150
e 76 179
e 77 20
e 77 29
e 77 107
e 77 132
e 77 179
e 78 32
e 78 56
e 78 110
e 78 142
e 78 177
e 79 19
e 79 24
e 79 83
e 79 124
e 79 142
e 80 15
e 80 22
e 80 92
e 80 119
e 80 121
e 81 23
e 81 33
e 81 34
e 81 68
e 81 110
e 82 24
e 82 62
e 82 103
e 82 122
e 82 177
e 83 61
e 83 82
e 83 82
e 83 97
e 83 145
e 84 36
e 84 81
e 84 86
e 84 137
e 84 152
e 85 6
e 85 28
e 85 64
e 85 88
e 85 161
e 86 2
e 86 136
e 86 142
e 86 169
e 86 173
e 87 25
e 87 70
e 87 131
e 87 155
e 87 168
e 88 48
e 88 81
e 88 101
e 88 122
e 88 146
e 89 21
e 89 40
e 89 77
e 89 88
e 89 154
e 90 78
e 90 80
e 90 111
e 90 134
e 90 147
e 91 20
e 91 50
e 91 65
e 91 137
e 91 161
e 92 14
e 92 95
e 92 117
e 92 145
e 92 177
e 93 5
e 93 18
e 93 137
e 93 144
e 93 158
e 94 6
e 94 10
e 94 86
e 94 92
e 94 151
e 95 35
e 95 83
e 95 118
e 95 141
e 95 166
e 96 48
e 96 64
e 96 82
e 96 118
e 96 139
e 97 7
e 97 10
e 97 47
e 97 74
e 97 107
e 98 12
e 98 29
e 98 143
e 98 153
e 98 175
e 99 21
e 99 45
e 99 93
e 99 109
e 99 133
e 100 115
e 100 122
e 100 122
e 100 137
e 100 158
e 101 13
e 101 75
e 101 92
e 101 114
e 101 114
e 102 3
e 102 15
e 102 71
e 102 77
e 102 124
e 103 51
e 103 52
e 103 72
e 103 136
e 103 153
e 104 15
e 104 37
e 104 69
e 104 82
e 104 169
e 105 13
e 105 51
e 105 54
e 105 128
e 105 140
e 106 29
e 106 77
e 106 112
e 106 114
e 106 121
e 107 11
e 107 50
e 107 97
e 107 110
e 107 117
e 108 24
e 108 27
e 108 46
e 108 83
e 108 118
e 109 12
e 109 32
e 109 88
e 109 131
e 109 143
e 110 73
e 110 97
e 110 102
e 110 151
e 110 155
e 111 70
e 111 87
e 111 153
e 111 162
e 111 168
e 112 14
e 112 64
e 112 84
e 112 121
e 112 160
e 113 22
e 113 44
e 113 76
e 113 121
e 113 149
e 114 15
e 114 24
e 114 27
e 114 89
e 114 97
e 115 10
e 115 74
e 115 120
e 115 124
e 115 125
e 116 36
e 116 47
e 116 49
e 116 114
e 116 120
e 117 7
e 117 8
e 117 116
e 117 151
e 117 169
e 118 30
e 118 36
e 118 104
e 118 108
e 118 177
e 119 18
e 119 99
e 119 133
e 119 143
e 119 161
e 120 2
e 120 75
e 120 82
e 120 133
e 120 135
e 121 43
e 121 45
e 121 80
e 121 124
e 121 174
e 122 43
e 122 60
e 122 104
e 122 132
e 122 138
e 123 13
e 123 25
e 123 49
e 123 134
e 123 169
e 124 2
e 124 34
e 124 67
e 124 147
e 124 160
e 125 2
e 125 61
e 125 153
e 125 178
e 125 180
e 126 27
e 126 36
e 126 48
e 126 85
e 126 133
e 127 84
e 127 132
e 127 154
e 127 177
e 127 178
e 128 56
e 128 79
e 128 95
e 128 106
e 128 178
e 129 5
e 129 38
e 129 71
e 129 108
e 129 121
e 130 23
e 130 47
e 130 95
e 130 124
e 130 137
e 131 11
e 131 57
e 131 118
e 131 139
e 131 180
e 132 4
e 132 42
e 132 43
e 132 75
e 132 171
e 133 48
e 133 52
e 133 92
e 133 103
e 133 109
e 134 7
e 134 8
e 134 12
e 134 138
e 134 170
e 135 1
e 135 139
e 135 161
e 135 163
e 135 166
e 136 37
e 136 57
e 136 86
e 136 129
e 136 142
e 137 29
e 137 38
e 137 70
e 137 90
e 137 153
e 138 38
e 138 85
e 138 109
e 138 136
e 138 144
e 139 16
e 139 26
e 139 37
e 139 67
e 139 126
e 140 30
e 140 42
e 140 109
e 140 111
e 140 168
e 141 20
e 141 48
e 141 81
e 141 91
e 141 178
e 142 46
e 142 55
e 142 61
e 142 88
e 142 148
e 143 25
e 143 65
e 143 68
e 143 80
e 143 131
e 144 1
e 144 39
e 144 81
e 144 107
e 144 153
e 145 74
e 145 108
e 145 116
e 145 118
e 145 153
e 146 82
e 146 123
e 146 133
e 146 148
e 146 171
e 147 27
e 147 41
e 147 86
e 147 152
e 147 176
e 148 1
e 148 14
e 148 14
e 148 41
e 148 156
e 149 17
e 149 24
e 149 26
e 149 82
e 149 85
e 150 41
e 150 62
e 150 78
e 150 108
e 150 161
e 151 13
e 151 57
e 151 94
e 151 114
e 151 142
e 152 31
e 152 93
e 152 95
e 152 102
e 152 166
e 153 11
e 153 16
e 153 28
e 153 74
e 153 156
e 154 15
e 154 35
e 154 56
e 154 57
e 154 127
e 155 21
e 155 27
e 155 120
e 155 121
e 155 135
e 156 5
e 156 79
e 156 85
e 156 141
e 156 176
e 157 19
e 157 73
e 157 91
e 157 148
e 157 160
e 158 29
e 158 38
e 158 51
e 158 53
e 158 161
e 159 15
e 159 24
e 159 109
e 159 146
e 159 170
e 160 14
e 160 45
e 160 59
e 160 97
e 160 132
e 161 28
e 161 53
e 161 73
e 161 129
e 161 165
e 162 19
e 162 83
e 162 134
e 162 136
e 162 139
e 163 27
e 163 60
e 163 143
e 163 156
e 163 161
e 164 23
e 164 52
e 164 91
e 164 94
e 164 104
e 165 17
e 165 80
e 165 113
e 165 163
e 165 170
e 166 16
e 166 35
e 166 92
e 166 92
e 166 94
e 167 62
e 167 91
e 167 106
e 167 111
e 167 123
e 168 23
e 168 59
e 168 75
e 168 79
e 168 95
e 169 43
e 169 43
e 169 62
e 169 105
e 169 155
e 170 38
e 170 50
e 170 57
e 170 72
e 170 124
e 171 5
e 171 34
e 171 77
e 171 97
e 171 100
e 172 7
e 172 9
e 172 65
e 172 112
e 172 141
e 173 76
e 173 117
e 173 130
e 173 170
e 173 177
e 174 21
e 174 41
e 174 89
e 174 90
e 174 143
e 175 18
e 175 19
e 175 40
e 175 105
e 175 134
e 176 78
e 176 81
e 176 134
e 176 153
e 176 164
e 177 11
e 177 49
e 177 55
e 177 111
e 177 166
e 178 20
e 178 33
e 178 82
e 178 98
e 178 175
e 179 48
e 179 65
e 179 116
e 179 146
e 179 168
e 180 8
e 180 30
e 180 36
e 180 43
e 180 175
